
******************************************************************************
This program contains Ipopt, a library for large-scale nonlinear optimization.
 Ipopt is released as open source code under the Eclipse Public License (EPL).
         For more information visit http://projects.coin-or.org/Ipopt

This version of Ipopt was compiled from source code available at
    https://github.com/IDAES/Ipopt as part of the Institute for the Design of
    Advanced Energy Systems Process Systems Engineering Framework (IDAES PSE
    Framework) Copyright (c) 2018-2019. See https://github.com/IDAES/idaes-pse.

This version of Ipopt was compiled using HSL, a collection of Fortran codes
    for large-scale scientific computation.  All technical papers, sales and
    publicity material resulting from use of the HSL codes within IPOPT must
    contain the following acknowledgement:
        HSL, a collection of Fortran codes for large-scale scientific
        computation. See http://www.hsl.rl.ac.uk.
******************************************************************************

This is Ipopt version 3.13.2, running with linear solver ma27.

Number of nonzeros in equality constraint Jacobian...:      808
Number of nonzeros in inequality constraint Jacobian.:        0
Number of nonzeros in Lagrangian Hessian.............:      702

Total number of variables............................:      351
                     variables with only lower bounds:      108
                variables with lower and upper bounds:      189
                     variables with only upper bounds:        0
Total number of equality constraints.................:      350
Total number of inequality constraints...............:        0
        inequality constraints with only lower bounds:        0
   inequality constraints with lower and upper bounds:        0
        inequality constraints with only upper bounds:        0

iter    objective    inf_pr   inf_du lg(mu)  ||d||  lg(rg) alpha_du alpha_pr  ls
   0  0.0000000e+00 4.47e-01 2.22e-16  -1.0 0.00e+00    -  0.00e+00 0.00e+00   0
   1  1.2460576e+00 3.35e-01 6.41e+04  -1.0 2.60e+05    -  3.79e-01 2.63e-01h  1
   2  1.3173993e+00 3.32e-01 6.35e+04  -1.0 2.17e+05    -  7.46e-01 9.48e-03h  1
   3  2.3683607e+01 6.71e-02 2.29e+04  -1.0 2.74e+05    -  7.45e-01 9.11e-01h  1
   4  3.4492518e+01 2.81e-03 2.14e+03  -1.0 6.66e+04    -  9.29e-01 9.90e-01h  1
   5  3.4949487e+01 3.21e-05 1.69e+01  -1.0 2.63e+03    -  9.89e-01 9.90e-01h  1
   6  3.4950372e+01 3.11e-05 1.48e+06  -1.0 2.62e+02    -  9.90e-01 3.09e-02f  6
   7  3.4957632e+01 2.92e-05 2.87e+06  -1.0 1.24e+03    -  9.90e-01 6.19e-02f  5
   8  3.5078247e+01 2.00e-04 4.57e+04  -1.0 1.31e+03    -  1.00e+00 9.90e-01H  1
   9  3.5070933e+01 3.87e-06 1.70e+06  -1.0 8.13e+01    -  1.00e+00 9.90e-01h  1
iter    objective    inf_pr   inf_du lg(mu)  ||d||  lg(rg) alpha_du alpha_pr  ls
  10  3.5071415e+01 6.02e-08 1.70e+08  -1.0 5.33e+00    -  1.00e+00 9.90e-01h  1
  11  3.5071420e+01 6.05e-10 1.70e+10  -1.0 5.52e-02    -  1.00e+00 9.90e-01h  1
In iteration 11, 27 Slacks too small, adjusting variable bounds
  12  3.5071420e+01 8.70e-12 1.70e+12  -1.0 5.52e-04    -  1.00e+00 9.90e-01h  1
  13  3.5071420e+01 6.14e-12 1.54e-02  -1.0 5.51e-06    -  1.00e+00 1.00e+00h  1
  14  3.5071413e+01 5.62e-12 1.73e+12  -9.0 1.49e+03    -  9.96e-01 5.15e-05f 15
  15  3.5071406e+01 7.49e-12 1.73e+12  -9.0 1.26e+03    -  9.98e-01 6.10e-05f 15
  16  3.5071399e+01 1.14e-11 1.73e+12  -9.0 1.26e+03    -  1.00e+00 6.10e-05f 15
  17  3.5071396e+01 1.25e-11 1.73e+12  -9.0 1.26e+03    -  1.00e+00 3.05e-05f 16
  18  3.5071395e+01 1.25e-11 1.73e+12  -9.0 1.26e+03    -  1.00e+00 7.63e-06f 18
  19  3.4956424e+01 1.37e-03 1.85e+05  -9.0 1.26e+03    -  1.00e+00 1.00e+00f  1
iter    objective    inf_pr   inf_du lg(mu)  ||d||  lg(rg) alpha_du alpha_pr  ls
  20  3.4954244e+01 2.86e-09 1.13e-03  -9.0 2.35e+01    -  1.00e+00 1.00e+00h  1
  21  3.4954244e+01 4.60e-12 3.64e-12  -9.0 3.83e-04    -  1.00e+00 1.00e+00h  1

Number of Iterations....: 21

                                   (scaled)                 (unscaled)
Objective...............:   3.4954244250170376e+01    3.4954244250170376e+01
Dual infeasibility......:   3.6379788070917130e-12    3.6379788070917130e-12
Constraint violation....:   4.6020964816761989e-12    4.6020964816761989e-12
Complementarity.........:   9.0909090909130398e-10    9.0909090909130398e-10
Overall NLP error.......:   1.0486000750472511e-10    9.0909090909130398e-10


Number of objective function evaluations             = 128
Number of objective gradient evaluations             = 22
Number of equality constraint evaluations            = 128
Number of inequality constraint evaluations          = 0
Number of equality constraint Jacobian evaluations   = 22
Number of inequality constraint Jacobian evaluations = 0
Number of Lagrangian Hessian evaluations             = 21
Total CPU secs in IPOPT (w/o function evaluations)   =      0.038
Total CPU secs in NLP function evaluations           =      0.797

EXIT: Optimal Solution Found.
